
Gurobi 7.5.2 (linux64) logging started Sat Jun 23 16:25:59 2018

Changed value of parameter LogFile to result/ilp/simNo_4-n_100-m_40-s_4-minVAF_0.05-cov_2000-k_1-fn_0.25-fp_0.0001-na_0.15.ILP.gurobiSolverLog
   Prev: gurobi.log  Default: 
Changed value of parameter TimeLimit to 86400.0
   Prev: 1e+100  Min: 0.0  Max: 1e+100  Default: 1e+100
Optimize a model with 1265601 rows, 330440 columns and 3489120 nonzeros
Variable types: 0 continuous, 330440 integer (330440 binary)
Coefficient statistics:
  Matrix range     [3e-03, 3e+00]
  Objective range  [1e+00, 2e+01]
  Bounds range     [1e+00, 1e+00]
  RHS range        [3e-01, 2e+00]
Found heuristic solution: objective -16485.88156
Presolve removed 328560 rows and 213650 columns (presolve time = 6s) ...
Presolve removed 329448 rows and 213650 columns (presolve time = 10s) ...
Presolve removed 330090 rows and 213650 columns (presolve time = 15s) ...
Presolve removed 330090 rows and 213650 columns (presolve time = 21s) ...
Presolve removed 330090 rows and 213650 columns (presolve time = 25s) ...
Presolve removed 330090 rows and 213650 columns (presolve time = 32s) ...
Presolve removed 330090 rows and 213650 columns
Presolve time: 33.80s
Presolved: 935511 rows, 116790 columns, 2596353 nonzeros
Variable types: 0 continuous, 116790 integer (116790 binary)
Presolved: 116790 rows, 1052301 columns, 2713143 nonzeros

Presolve removed 116790 rows and 1052301 columns

Root simplex log...

Iteration    Objective       Primal Inf.    Dual Inf.      Time
       0    1.7036119e+01   0.000000e+00   1.053820e+05     44s
    7187   -1.6738340e+02   0.000000e+00   2.366470e+05     45s
   15782   -2.4161900e+02   0.000000e+00   3.448960e+05     50s
   26669   -2.8611204e+02   0.000000e+00   4.883460e+06     55s
   34118   -3.0950481e+02   0.000000e+00   1.276876e+05     60s
   42140   -3.3932176e+02   0.000000e+00   1.657012e+05     65s
   48443   -3.6975041e+02   0.000000e+00   3.617774e+05     70s
   55319   -3.8670723e+02   0.000000e+00   1.944253e+05     75s
   61049   -4.0017308e+02   0.000000e+00   6.261983e+05     80s
   69071   -4.2519712e+02   0.000000e+00   4.089284e+05     85s
   77666   -4.3700884e+02   0.000000e+00   2.737765e+05     90s
   86834   -4.5467528e+02   0.000000e+00   2.074762e+05     95s
   94856   -4.7599274e+02   0.000000e+00   1.901551e+06    100s
  101732   -4.8942823e+02   0.000000e+00   5.210116e+05    105s
  109181   -5.0021436e+02   0.000000e+00   2.444770e+05    110s
  117203   -5.1076622e+02   0.000000e+00   1.157624e+05    115s
  124079   -5.2249560e+02   0.000000e+00   2.804095e+05    120s
  130955   -5.3374245e+02   0.000000e+00   1.864122e+05    125s
  138404   -5.4551774e+02   0.000000e+00   7.261773e+05    131s
  145853   -5.5434979e+02   0.000000e+00   1.132618e+05    135s
  156740   -5.6852927e+02   0.000000e+00   4.317000e+03    140s
  166481   -5.7903816e+02   0.000000e+00   2.633779e+05    145s
  167849   -5.7995358e+02   0.000000e+00   0.000000e+00    147s
  167849   -5.7995358e+02   0.000000e+00   0.000000e+00    150s

Root relaxation: objective -5.799536e+02, 167849 iterations, 113.24 seconds
Total elapsed time = 151.72s
Total elapsed time = 254.08s
Total elapsed time = 315.78s
Total elapsed time = 361.45s

    Nodes    |    Current Node    |     Objective Bounds      |     Work
 Expl Unexpl |  Obj  Depth IntInf | Incumbent    BestBd   Gap | It/Node Time

     0     0 -579.95358    0 1220 -16485.882 -579.95358  96.5%     -  377s
H    0     0                    -653.4340202 -579.95358  11.2%     -  466s
     0     0 -583.17640    0 1219 -653.43402 -583.17640  10.8%     -  547s
     0     0 -583.82097    0 1215 -653.43402 -583.82097  10.7%     -  691s
     0     0 -584.95469    0 1236 -653.43402 -584.95469  10.5%     -  830s
     0     0 -585.13805    0 1237 -653.43402 -585.13805  10.5%     -  984s
     0     0 -585.39865    0 1415 -653.43402 -585.39865  10.4%     - 1055s
     0     0 -585.43088    0 1419 -653.43402 -585.43088  10.4%     - 1223s
     0     0 -585.43414    0 1413 -653.43402 -585.43414  10.4%     - 1241s
     0     0 -585.43414    0 1413 -653.43402 -585.43414  10.4%     - 1246s
     0     0 -586.40099    0 1439 -653.43402 -586.40099  10.3%     - 1292s
     0     0 -586.40099    0 1438 -653.43402 -586.40099  10.3%     - 1431s
     0     0 -588.01187    0 1449 -653.43402 -588.01187  10.0%     - 1637s
     0     0 -588.01240    0 1445 -653.43402 -588.01240  10.0%     - 1758s
     0     0 -588.12663    0 1272 -653.43402 -588.12663  10.0%     - 1804s
     0     0 -588.34785    0 1270 -653.43402 -588.34785  10.0%     - 2018s
     0     0 -588.72232    0 1269 -653.43402 -588.72232  9.90%     - 2071s
     0     0 -588.72642    0 1267 -653.43402 -588.72642  9.90%     - 2090s
     0     0 -588.72642    0 1269 -653.43402 -588.72642  9.90%     - 2100s
     0     0 -589.53496    0 1285 -653.43402 -589.53496  9.78%     - 2249s
     0     0 -589.69028    0 1274 -653.43402 -589.69028  9.76%     - 2425s
     0     0 -589.72486    0 1279 -653.43402 -589.72486  9.75%     - 2446s
     0     0 -589.72486    0 1279 -653.43402 -589.72486  9.75%     - 2455s
     0     0 -592.57680    0 1300 -653.43402 -592.57680  9.31%     - 2772s
     0     0 -592.67030    0 1291 -653.43402 -592.67030  9.30%     - 2909s
     0     0 -592.67681    0 1282 -653.43402 -592.67681  9.30%     - 2922s
     0     0 -592.67780    0 1291 -653.43402 -592.67780  9.30%     - 2935s
     0     0 -593.95842    0 1287 -653.43402 -593.95842  9.10%     - 3024s
     0     0 -593.96333    0 1287 -653.43402 -593.96333  9.10%     - 3168s
     0     0 -593.96333    0 1288 -653.43402 -593.96333  9.10%     - 3179s
     0     0 -594.23725    0 1277 -653.43402 -594.23725  9.06%     - 3212s
     0     0 -594.51455    0 1291 -653.43402 -594.51455  9.02%     - 3380s
     0     0 -594.62576    0 1292 -653.43402 -594.62576  9.00%     - 3404s
     0     0 -594.64110    0 1292 -653.43402 -594.64110  9.00%     - 3417s
     0     0 -594.64256    0 1290 -653.43402 -594.64256  9.00%     - 3428s
     0     0 -595.48787    0 1286 -653.43402 -595.48787  8.87%     - 3544s
     0     0 -595.82013    0 1298 -653.43402 -595.82013  8.82%     - 3662s
     0     0 -595.92051    0 1302 -653.43402 -595.92051  8.80%     - 3687s
     0     0 -595.95452    0 1292 -653.43402 -595.95452  8.80%     - 3711s
     0     0 -595.98197    0 1302 -653.43402 -595.98197  8.79%     - 3731s
     0     0 -595.99109    0 1307 -653.43402 -595.99109  8.79%     - 3745s
     0     0 -595.99109    0 1301 -653.43402 -595.99109  8.79%     - 3756s
     0     0 -597.13367    0 1291 -653.43402 -597.13367  8.62%     - 3817s
     0     0 -597.48380    0 1285 -653.43402 -597.48380  8.56%     - 3961s
     0     0 -597.59710    0 1293 -653.43402 -597.59710  8.55%     - 3995s
     0     0 -597.64193    0 1290 -653.43402 -597.64193  8.54%     - 4022s
     0     0 -597.64193    0 1294 -653.43402 -597.64193  8.54%     - 4034s
     0     0 -598.26239    0 1308 -653.43402 -598.26239  8.44%     - 4076s
     0     0 -598.35827    0 1302 -653.43402 -598.35827  8.43%     - 4251s
     0     0 -598.38279    0 1310 -653.43402 -598.38279  8.42%     - 4270s
     0     0 -598.38279    0 1311 -653.43402 -598.38279  8.42%     - 4281s
     0     0 -599.62666    0 1275 -653.43402 -599.62666  8.23%     - 4334s
     0     0 -599.82496    0 1289 -653.43402 -599.82496  8.20%     - 4446s
     0     0 -599.95355    0 1322 -653.43402 -599.95355  8.18%     - 4486s
     0     0 -599.97038    0 1298 -653.43402 -599.97038  8.18%     - 4502s
     0     0 -599.98946    0 1318 -653.43402 -599.98946  8.18%     - 4516s
     0     0 -599.99694    0 1321 -653.43402 -599.99694  8.18%     - 4536s
     0     0 -599.99694    0 1326 -653.43402 -599.99694  8.18%     - 4546s
     0     0 -601.16750    0 1286 -653.43402 -601.16750  8.00%     - 4659s
     0     0 -601.50519    0 1310 -653.43402 -601.50519  7.95%     - 4854s
     0     0 -601.57159    0 1308 -653.43402 -601.57159  7.94%     - 4877s
     0     0 -601.58476    0 1268 -653.43402 -601.58476  7.93%     - 4893s
     0     0 -601.59949    0 1307 -653.43402 -601.59949  7.93%     - 4907s
     0     0 -601.59949    0 1315 -653.43402 -601.59949  7.93%     - 4918s
     0     0 -602.94623    0 1257 -653.43402 -602.94623  7.73%     - 4980s
     0     0 -603.56941    0 1298 -653.43402 -603.56941  7.63%     - 5074s
     0     0 -603.75651    0 1276 -653.43402 -603.75651  7.60%     - 5108s
     0     0 -603.77716    0 1279 -653.43402 -603.77716  7.60%     - 5126s
     0     0 -603.77716    0 1281 -653.43402 -603.77716  7.60%     - 5137s
     0     0 -604.20891    0 1259 -653.43402 -604.20891  7.53%     - 5180s
     0     0 -604.54649    0 1240 -653.43402 -604.54649  7.48%     - 5311s
     0     0 -604.59352    0 1293 -653.43402 -604.59352  7.47%     - 5337s
     0     0 -604.62400    0 1270 -653.43402 -604.62400  7.47%     - 5363s
     0     0 -604.63525    0 1195 -653.43402 -604.63525  7.47%     - 5378s
     0     0 -604.63602    0 1312 -653.43402 -604.63602  7.47%     - 5394s
     0     0 -605.26867    0 1293 -653.43402 -605.26867  7.37%     - 5446s
     0     0 -605.91900    0 1219 -653.43402 -605.91900  7.27%     - 5650s
     0     0 -606.03401    0 1263 -653.43402 -606.03401  7.25%     - 5686s
     0     0 -606.10437    0 1246 -653.43402 -606.10437  7.24%     - 5738s
     0     0 -606.11805    0 1254 -653.43402 -606.11805  7.24%     - 5773s
     0     0 -606.12203    0 1270 -653.43402 -606.12203  7.24%     - 5790s
     0     0 -606.12361    0 1298 -653.43402 -606.12361  7.24%     - 5805s
     0     0 -607.66988    0 1060 -653.43402 -607.66988  7.00%     - 6100s
     0     0 -607.66988    0 1054 -653.43402 -607.66988  7.00%     - 6210s
     0     0 -607.99217    0 1055 -653.43402 -607.99217  6.95%     - 6432s
     0     0 -608.09133    0 1068 -653.43402 -608.09133  6.94%     - 6654s
     0     0 -608.12645    0 1089 -653.43402 -608.12645  6.93%     - 6686s
     0     0 -608.16890    0 1092 -653.43402 -608.16890  6.93%     - 6733s
     0     0 -608.17954    0 1111 -653.43402 -608.17954  6.93%     - 6775s
     0     0 -608.18144    0 1107 -653.43402 -608.18144  6.93%     - 6797s
     0     0 -608.63673    0 1047 -653.43402 -608.63673  6.86%     - 6956s
     0     0 -608.87844    0 1067 -653.43402 -608.87844  6.82%     - 7214s
     0     0 -608.95901    0 1069 -653.43402 -608.95901  6.81%     - 7319s
     0     0 -608.95901    0 1067 -653.43402 -608.95901  6.81%     - 7340s
     0     0 -609.07156    0 1101 -653.43402 -609.07156  6.79%     - 7542s
     0     0 -609.33501    0 1109 -653.43402 -609.33501  6.75%     - 7796s
     0     0 -609.44244    0 1109 -653.43402 -609.44244  6.73%     - 7891s
     0     0 -609.44244    0 1114 -653.43402 -609.44244  6.73%     - 7901s
     0     0 -609.87309    0 1080 -653.43402 -609.87309  6.67%     - 7980s
     0     0 -610.07354    0 1118 -653.43402 -610.07354  6.64%     - 8218s
     0     0 -610.11002    0 1088 -653.43402 -610.11002  6.63%     - 8269s
     0     0 -610.11452    0 1122 -653.43402 -610.11452  6.63%     - 8292s
     0     0 -610.11584    0 1124 -653.43402 -610.11584  6.63%     - 8305s
     0     0 -611.37741    0 1108 -653.43402 -611.37741  6.44%     - 8589s
     0     0 -611.65626    0 1118 -653.43402 -611.65626  6.39%     - 8765s
     0     0 -611.75620    0 1110 -653.43402 -611.75620  6.38%     - 8848s
     0     0 -611.78716    0 1114 -653.43402 -611.78716  6.37%     - 8900s
     0     0 -611.80998    0 1113 -653.43402 -611.80998  6.37%     - 8930s
     0     0 -611.81169    0 1119 -653.43402 -611.81169  6.37%     - 8951s
     0     0 -612.55883    0 1102 -653.43402 -612.55883  6.26%     - 9112s
     0     0 -612.86287    0 1107 -653.43402 -612.86287  6.21%     - 9288s
     0     0 -612.88374    0 1126 -653.43402 -612.88374  6.21%     - 9333s
     0     0 -612.89069    0 1130 -653.43402 -612.89069  6.20%     - 9374s
     0     0 -612.89097    0 1130 -653.43402 -612.89097  6.20%     - 9393s
     0     0 -613.10311    0 1107 -653.43402 -613.10311  6.17%     - 9512s
     0     0 -613.40140    0 1102 -653.43402 -613.40140  6.13%     - 9775s
     0     0 -613.53755    0 1113 -653.43402 -613.53755  6.11%     - 9883s
     0     0 -613.56200    0 1116 -653.43402 -613.56200  6.10%     - 9926s
     0     0 -613.56831    0 1120 -653.43402 -613.56831  6.10%     - 9958s
     0     0 -613.57095    0 1122 -653.43402 -613.57095  6.10%     - 9983s
     0     0 -614.59662    0 1114 -653.43402 -614.59662  5.94%     - 10199s
     0     0 -614.75860    0 1135 -653.43402 -614.75860  5.92%     - 10372s
     0     0 -614.76043    0 1137 -653.43402 -614.76043  5.92%     - 10397s
     0     0 -615.50801    0 1122 -653.43402 -615.50801  5.80%     - 10615s
     0     0 -615.73502    0 1130 -653.43402 -615.73502  5.77%     - 10853s
     0     0 -615.82766    0 1144 -653.43402 -615.82766  5.76%     - 10905s
     0     0 -615.83204    0 1137 -653.43402 -615.83204  5.75%     - 10934s
     0     0 -615.83286    0 1147 -653.43402 -615.83286  5.75%     - 10949s
     0     0 -616.68201    0 1126 -653.43402 -616.68201  5.62%     - 11149s
     0     0 -617.08044    0 1136 -653.43402 -617.08044  5.56%     - 11379s
     0     0 -617.11659    0 1139 -653.43402 -617.11659  5.56%     - 11432s
     0     0 -617.14718    0 1144 -653.43402 -617.14718  5.55%     - 11494s
     0     0 -617.15079    0 1141 -653.43402 -617.15079  5.55%     - 11512s
     0     0 -617.75068    0 1125 -653.43402 -617.75068  5.46%     - 11629s
     0     0 -617.86094    0 1125 -653.43402 -617.86094  5.44%     - 11783s
     0     0 -617.87550    0 1115 -653.43402 -617.87550  5.44%     - 11808s
     0     0 -617.89085    0 1118 -653.43402 -617.89085  5.44%     - 11844s
     0     0 -617.91314    0 1119 -653.43402 -617.91314  5.44%     - 11924s
     0     0 -617.92465    0 1136 -653.43402 -617.92465  5.43%     - 11957s
     0     0 -617.92465    0 1137 -653.43402 -617.92465  5.43%     - 11967s
     0     0 -618.81758    0 1124 -653.43402 -618.81758  5.30%     - 12487s
     0     0 -619.15652    0 1131 -653.43402 -619.15652  5.25%     - 12815s
     0     0 -619.18290    0 1123 -653.43402 -619.18290  5.24%     - 13048s
     0     0 -619.18815    0 1115 -653.43402 -619.18815  5.24%     - 13083s
     0     0 -619.18830    0 1115 -653.43402 -619.18830  5.24%     - 13123s
     0     0 -619.34648    0 1114 -653.43402 -619.34648  5.22%     - 13277s
     0     0 -619.41682    0 1125 -653.43402 -619.41682  5.21%     - 13467s
     0     0 -619.44816    0 1137 -653.43402 -619.44816  5.20%     - 13599s
     0     0 -619.46402    0 1135 -653.43402 -619.46402  5.20%     - 13620s
     0     0 -619.46976    0 1137 -653.43402 -619.46976  5.20%     - 13633s
     0     0 -619.47187    0 1146 -653.43402 -619.47187  5.20%     - 13644s
     0     0 -620.43350    0 1123 -653.43402 -620.43350  5.05%     - 13819s
     0     0 -620.81526    0 1126 -653.43402 -620.81526  4.99%     - 14143s
     0     0 -621.05248    0 1125 -653.43402 -621.05248  4.96%     - 14303s
     0     0 -621.05248    0 1131 -653.43402 -621.05248  4.96%     - 14325s
     0     0 -621.87023    0 1101 -653.43402 -621.87023  4.83%     - 15024s
     0     0 -622.52150    0 1128 -653.43402 -622.52150  4.73%     - 15626s
     0     0 -622.52150    0 1130 -653.43402 -622.52150  4.73%     - 15652s
     0     0 -623.38531    0 1118 -653.43402 -623.38531  4.60%     - 16837s
     0     0 -623.52012    0 1133 -653.43402 -623.52012  4.58%     - 17064s
     0     0 -623.56358    0 1138 -653.43402 -623.56358  4.57%     - 17148s
     0     0 -623.59102    0 1133 -653.43402 -623.59102  4.57%     - 17214s
     0     0 -623.59102    0 1136 -653.43402 -623.59102  4.57%     - 17225s
     0     0 -623.95590    0 1103 -653.43402 -623.95590  4.51%     - 17455s
     0     0 -624.46305    0 1135 -653.43402 -624.46305  4.43%     - 18088s
     0     0 -624.48564    0 1129 -653.43402 -624.48564  4.43%     - 18193s
     0     0 -624.58057    0 1137 -653.43402 -624.58057  4.42%     - 18304s
     0     0 -624.60509    0 1135 -653.43402 -624.60509  4.41%     - 18368s
     0     0 -624.60765    0 1138 -653.43402 -624.60765  4.41%     - 18388s
     0     0 -624.62559    0 1141 -653.43402 -624.62559  4.41%     - 18414s
     0     0 -624.67004    0 1141 -653.43402 -624.67004  4.40%     - 18513s
     0     0 -624.68279    0 1145 -653.43402 -624.68279  4.40%     - 18547s
     0     0 -624.68525    0 1141 -653.43402 -624.68525  4.40%     - 18566s
     0     0 -624.90900    0 1130 -653.43402 -624.90900  4.37%     - 18738s
     0     0 -624.96940    0 1132 -653.43402 -624.96940  4.36%     - 18834s
     0     0 -625.01867    0 1147 -653.43402 -625.01867  4.35%     - 18899s
     0     0 -625.03740    0 1136 -653.43402 -625.03740  4.35%     - 18942s
     0     0 -625.04315    0 1141 -653.43402 -625.04315  4.34%     - 18962s
     0     0 -625.04321    0 1142 -653.43402 -625.04321  4.34%     - 18972s
     0     0 -625.10611    0 1124 -653.43402 -625.10611  4.34%     - 19017s
     0     0 -625.12800    0 1135 -653.43402 -625.12800  4.33%     - 19114s
     0     0 -625.14721    0 1148 -653.43402 -625.14721  4.33%     - 19163s
     0     0 -625.15807    0 1147 -653.43402 -625.15807  4.33%     - 19219s
     0     0 -625.15928    0 1152 -653.43402 -625.15928  4.33%     - 19233s
     0     0 -625.63622    0 1131 -653.43402 -625.63622  4.25%     - 19483s
     0     0 -625.81619    0 1151 -653.43402 -625.81619  4.23%     - 19948s
     0     0 -625.92603    0 1157 -653.43402 -625.92603  4.21%     - 20043s
     0     0 -625.97551    0 1149 -653.43402 -625.97551  4.20%     - 20076s
     0     0 -625.99285    0 1148 -653.43402 -625.99285  4.20%     - 20096s
     0     0 -625.99522    0 1149 -653.43402 -625.99522  4.20%     - 20111s
     0     0 -626.50336    0 1110 -653.43402 -626.50336  4.12%     - 20340s
     0     0 -626.69912    0 1125 -653.43402 -626.69912  4.09%     - 20524s
     0     0 -626.72146    0 1132 -653.43402 -626.72146  4.09%     - 20564s
     0     0 -626.72146    0 1135 -653.43402 -626.72146  4.09%     - 20581s
     0     0 -626.91047    0 1132 -653.43402 -626.91047  4.06%     - 20760s
     0     0 -627.10178    0 1139 -653.43402 -627.10178  4.03%     - 21089s
     0     0 -627.17533    0 1130 -653.43402 -627.17533  4.02%     - 21141s
     0     0 -627.21458    0 1129 -653.43402 -627.21458  4.01%     - 21176s
     0     0 -627.21949    0 1137 -653.43402 -627.21949  4.01%     - 21198s
     0     0 -627.21949    0 1138 -653.43402 -627.21949  4.01%     - 21209s
     0     0 -627.28785    0 1134 -653.43402 -627.28785  4.00%     - 21304s
     0     0 -627.40463    0 1126 -653.43402 -627.40463  3.98%     - 21452s
     0     0 -627.44411    0 1125 -653.43402 -627.44411  3.98%     - 21488s
     0     0 -627.45403    0 1128 -653.43402 -627.45403  3.98%     - 21516s
     0     0 -627.45403    0 1128 -653.43402 -627.45403  3.98%     - 21525s
     0     0 -627.68878    0 1121 -653.43402 -627.68878  3.94%     - 21626s
     0     0 -627.70498    0 1125 -653.43402 -627.70498  3.94%     - 21705s
     0     0 -627.70498    0 1134 -653.43402 -627.70498  3.94%     - 21712s
     0     0 -627.76716    0 1129 -653.43402 -627.76716  3.93%     - 21757s
     0     0 -627.88905    0 1147 -653.43402 -627.88905  3.91%     - 21930s
     0     0 -627.97775    0 1151 -653.43402 -627.97775  3.90%     - 22012s
     0     0 -628.00509    0 1147 -653.43402 -628.00509  3.89%     - 22040s
     0     0 -628.00702    0 1150 -653.43402 -628.00702  3.89%     - 22065s
     0     0 -628.32997    0 1149 -653.43402 -628.32997  3.84%     - 22165s
     0     0 -628.35626    0 1154 -653.43402 -628.35626  3.84%     - 22242s
     0     0 -628.41087    0 1158 -653.43402 -628.41087  3.83%     - 22275s
     0     0 -628.42016    0 1158 -653.43402 -628.42016  3.83%     - 22299s
     0     0 -628.42636    0 1148 -653.43402 -628.42636  3.83%     - 22320s
     0     0 -628.44943    0 1157 -653.43402 -628.44943  3.82%     - 22336s
     0     0 -628.45198    0 1163 -653.43402 -628.45198  3.82%     - 22347s
     0     0 -628.57651    0 1161 -653.43402 -628.57651  3.80%     - 22391s
     0     0 -628.58452    0 1163 -653.43402 -628.58452  3.80%     - 22457s
     0     0 -628.58476    0 1164 -653.43402 -628.58476  3.80%     - 22470s
     0     0 -628.69963    0 1156 -653.43402 -628.69963  3.79%     - 22507s
     0     0 -628.73361    0 1146 -653.43402 -628.73361  3.78%     - 22544s
     0     0 -628.75120    0 1141 -653.43402 -628.75120  3.78%     - 22555s
     0     0 -628.75131    0 1143 -653.43402 -628.75131  3.78%     - 22562s
     0     0 -628.98535    0 1139 -653.43402 -628.98535  3.74%     - 22615s
     0     0 -629.04750    0 1165 -653.43402 -629.04750  3.73%     - 22676s
     0     0 -629.05458    0 1165 -653.43402 -629.05458  3.73%     - 22692s
     0     0 -629.05744    0 1163 -653.43402 -629.05744  3.73%     - 22708s
     0     0 -629.05748    0 1166 -653.43402 -629.05748  3.73%     - 22723s
     0     0 -629.05748    0 1169 -653.43402 -629.05748  3.73%     - 22744s
     0     0 -629.05748    0 1172 -653.43402 -629.05748  3.73%     - 22760s
     0     0 -629.05748    0 1144 -653.43402 -629.05748  3.73%     - 22970s
     0     2 -629.05818    0 1143 -653.43402 -629.05818  3.73%     - 23375s
     1     3 -635.02701    1 1274 -653.43402 -629.06017  3.73% 19173 23501s
     2     4 -629.45019    1 1126 -653.43402 -629.45019  3.67% 10892 23518s
     3     5 -629.48237    2 1120 -653.43402 -629.45019  3.67%  7398 23522s
     4     6 -634.01361    2 1290 -653.43402 -629.48485  3.67%  8198 23601s
     5     7 -629.60289    3 1106 -653.43402 -629.48485  3.67%  6720 23609s
     6     8 -632.04772    3 1281 -653.43402 -629.60289  3.65%  6164 23637s
     7     9 -629.68756    4 1114 -653.43402 -629.60289  3.65%  5384 23642s
     8    10 -650.83115    4  807 -653.43402 -629.68756  3.63%  9262 23913s
     9    11 -629.79326    5 1114 -653.43402 -629.68895  3.63%  8303 23919s
    10    12 -633.94700    5 1254 -653.43402 -629.79546  3.62%  8443 23983s
    11    13 -630.27871    6 1123 -653.43402 -629.82295  3.61%  7839 23998s
    13    15 -630.89853    8 1125 -653.43402 -629.82295  3.61%  6705 24009s
    14    16 -641.80724    8  891 -653.43402 -629.82295  3.61%  6814 24071s
    15    17 -631.12249    9 1107 -653.43402 -629.82295  3.61%  6398 24077s
    16    18 -642.82318    9 1040 -653.43402 -629.82295  3.61%  7327 24239s
    17    19 -631.22562   10 1099 -653.43402 -629.82295  3.61%  6915 24244s
    18    20 -648.89746   10  892 -653.43402 -629.82295  3.61%  7823 24415s
    19    21 -649.54202   11  845 -653.43402 -629.82295  3.61%  7431 24421s
    20    20     cutoff   11      -653.43402 -629.82295  3.61%  7156 24433s
    21    21 -651.47572   12  828 -653.43402 -629.82295  3.61%  6910 24444s
    22    22 -652.12028   13  789 -653.43402 -629.82295  3.61%  6611 24448s
    23    21     cutoff   13      -653.43402 -629.82295  3.61%  6359 24454s
    24    22 -652.12028   14  778 -653.43402 -629.82295  3.61%  6094 24456s
    25    23 -652.76485   15  758 -653.43402 -629.82295  3.61%  5860 24461s
    27    22 -653.40941   16  714 -653.43402 -629.82295  3.61%  5445 24468s
    30    21 -637.00203    6 1285 -653.43402 -630.27871  3.54%  5477 24587s
    31    22 -646.31919    7  892 -653.43402 -630.27871  3.54%  5563 24653s
    32    23 -646.96376    8  844 -653.43402 -630.27871  3.54%  5395 24657s
    33    24 -647.60833    9  822 -653.43402 -630.27871  3.54%  5242 24662s
    34    25 -648.25289   10  778 -653.43402 -630.27871  3.54%  5095 24666s
    36    25 -648.89746   11  779 -653.43402 -630.27871  3.54%  4820 24671s
    37    24     cutoff   11      -653.43402 -630.27871  3.54%  4706 24676s
    39    26 -650.18659   13  752 -653.43402 -630.27871  3.54%  4476 24683s
    40    25     cutoff   13      -653.43402 -630.27871  3.54%  4388 24688s
    41    26 -650.83115   14  721 -653.43402 -630.27871  3.54%  4292 24692s
    43    26 -653.40941   15  551 -653.43402 -630.27871  3.54%  4116 24700s
    46    29 -652.76485   18  675 -653.43402 -630.27871  3.54%  3855 24705s
    51    26     cutoff   18      -653.43402 -630.27871  3.54%  3483 24710s
    52    27 -641.16267    7  862 -653.43402 -631.23821  3.40%  3733 24820s
    53    28 -643.09637    8  868 -653.43402 -631.23821  3.40%  3683 24834s
    54    29 -650.88025    8  728 -653.43402 -631.23821  3.40%  3878 24929s
    55    30 -644.38550    9  858 -653.43402 -631.23821  3.40%  3841 24943s
    56    31 -646.96376   10  846 -653.43402 -631.23821  3.40%  3786 24959s
    57    30     cutoff   10      -653.43402 -631.23821  3.40%  3865 25007s
    58    31 -650.83115   11  805 -653.43402 -631.23821  3.40%  3805 25012s
    59    32 -653.40941   12  848 -653.43402 -631.23821  3.40%  3751 25019s
    61    30     cutoff   13      -653.43402 -631.23821  3.40%  3628 25020s
    63    28     cutoff   11      -653.43402 -631.23821  3.40%  3525 25028s
    64    29 -631.87019   11 1096 -653.43402 -631.24494  3.40%  3478 25035s
    65    30 -632.12431   12 1122 -653.43402 -631.24494  3.40%  3473 25052s
    66    31 -632.48357   13 1122 -653.43402 -631.24494  3.40%  3462 25068s
    67    32 -649.54202   13  948 -653.43402 -631.24494  3.40%  9756 41866s
    68    33 -640.87908   12 1267 -653.43402 -631.24494  3.40% 10650 43709s
    69    34 -632.95581   14 1125 -653.43402 -631.24494  3.40% 10629 43813s
    70    35 -645.03006   14  887 -653.43402 -631.24494  3.40% 15063 55968s
    71    36 -633.44814   15 1128 -653.43402 -631.24494  3.40% 15037 56170s
    72    37 -633.81526   16 1119 -653.43402 -631.24494  3.40% 14878 56457s
    73    38 -649.54202   16  786 -653.43402 -631.24494  3.40% 18097 63603s
    74    39 -635.68387   17 1105 -653.43402 -631.24494  3.40% 18260 64189s
    75    40 -637.13414   17 1111 -653.43402 -631.24494  3.40% 18688 65290s
    76    41 -637.61756   18 1096 -653.43402 -631.24494  3.40% 18807 65837s
    77    42 -651.15343   18  788 -653.43402 -631.24494  3.40% 23502 77700s
    78    43 -635.84501   18 1099 -653.43402 -631.24494  3.40% 23376 77925s
    79    44 -641.18543   18 1289 -653.43402 -631.24494  3.40% 24918 81612s
    80    45 -637.77870   19 1086 -653.43402 -631.24494  3.40% 24796 82036s

Cutting planes:
  Gomory: 1
  Zero half: 708

Explored 81 nodes (2951388 simplex iterations) in 86400.61 seconds
Thread count was 1 (of 80 available processors)

Solution count 2: -653.434 -16485.9 

Time limit reached
Best objective -6.534340201863e+02, best bound -6.312449383587e+02, gap 3.3958%
